p cnf 18 22
-1 16 0 
-2 17 0 
-2 18 0 
-3 7 12 16 0 
-4 17 0 
-5 14 18 0 
-4 18 0 
-6 10 16 0 
-7 3 12 16 0 
-8 18 0 
-9 17 0 
-10 6 17 0 
-11 16 0 
-10 6 18 0 
-10 6 16 0 
-12 3 7 16 0 
-5 14 17 0 
-13 16 0 
-8 17 0 
-14 5 16 0 
-9 18 0 
-15 16 0 
